nj = 8;
nm = 4;
pidle =  [1 1 1 3];
Ops =  {<1 1 1 6 0 5 5> <1 2 4 6 1 1 5>
     <2 1 2 11 0 5 5>
     <2 2 4 9 1 2 4>
     <3 1 2 9 0 5 5>
     <3 2 4 7 1 2 5>
     <4 1 3 16 0 5 5>
     <4 2 4 7 1 3 5>
     <5 1 1 9 0 5 3>
     <5 2 3 18 1 1 3>
     <6 1 2 13 0 5 4>
     <6 2 3 19 0 2 4>
     <6 3 4 6 1 3 5>
     <7 1 1 10 0 5 4>
     <7 2 2 9 0 1 4>
     <7 3 3 13 1 2 4>
     <8 1 1 11 0 5 3>
     <8 2 2 9 0 1 3>
     <8 3 4 8 1 2 3>};
